p cnf 418 1469
81 0
1 85 0
1 97 0
1 98 0
1 99 0
1 100 0
1 101 0
1 102 0
1 103 0
1 104 0
1 105 0
1 106 0
1 107 0
1 365 0
2 97 0
2 108 0
2 109 0
2 110 0
2 111 0
2 112 0
2 113 0
2 114 0
2 115 0
2 116 0
2 117 0
2 367 0
3 84 0
3 98 0
3 108 0
3 118 0
3 119 0
3 120 0
3 121 0
3 122 0
3 123 0
3 124 0
3 125 0
3 126 0
3 368 0
4 99 0
4 109 0
4 118 0
4 127 0
4 128 0
4 129 0
4 130 0
4 131 0
4 132 0
4 133 0
4 134 0
4 370 0
5 100 0
5 110 0
5 119 0
5 127 0
5 135 0
5 136 0
5 137 0
5 138 0
5 139 0
5 140 0
5 141 0
5 371 0
6 101 0
6 111 0
6 120 0
6 128 0
6 135 0
6 142 0
6 143 0
6 144 0
6 145 0
6 146 0
6 147 0
6 372 0
7 102 0
7 112 0
7 121 0
7 129 0
7 136 0
7 142 0
7 148 0
7 149 0
7 150 0
7 151 0
7 152 0
7 373 0
8 103 0
8 113 0
8 122 0
8 130 0
8 137 0
8 143 0
8 148 0
8 153 0
8 154 0
8 155 0
8 156 0
8 374 0
9 104 0
9 114 0
9 123 0
9 131 0
9 138 0
9 144 0
9 149 0
9 153 0
9 157 0
9 158 0
9 159 0
9 375 0
10 105 0
10 115 0
10 124 0
10 132 0
10 139 0
10 145 0
10 150 0
10 154 0
10 157 0
10 160 0
10 161 0
10 376 0
11 106 0
11 116 0
11 125 0
11 133 0
11 140 0
11 146 0
11 151 0
11 155 0
11 158 0
11 160 0
11 162 0
11 377 0
12 83 0
12 107 0
12 117 0
12 126 0
12 134 0
12 141 0
12 147 0
12 152 0
12 156 0
12 159 0
12 161 0
12 162 0
12 378 0
13 85 0
13 163 0
13 164 0
13 165 0
13 166 0
13 167 0
13 168 0
13 169 0
13 404 0
13 413 0
14 82 0
14 83 0
14 163 0
14 170 0
14 171 0
14 172 0
14 173 0
14 174 0
14 175 0
14 405 0
14 414 0
15 84 0
15 164 0
15 170 0
15 176 0
15 177 0
15 178 0
15 179 0
15 180 0
15 406 0
15 415 0
16 165 0
16 171 0
16 176 0
16 181 0
16 182 0
16 183 0
16 184 0
16 407 0
16 416 0
17 166 0
17 172 0
17 177 0
17 181 0
17 185 0
17 186 0
17 187 0
17 408 0
17 417 0
18 188 0
18 189 0
18 190 0
18 191 0
18 192 0
18 193 0
18 194 0
18 195 0
18 196 0
18 197 0
18 198 0
18 199 0
18 200 0
18 201 0
18 202 0
18 380 0
19 82 0
19 188 0
19 203 0
19 204 0
19 205 0
19 206 0
19 207 0
19 208 0
19 209 0
19 210 0
19 211 0
19 212 0
19 213 0
19 214 0
19 215 0
19 216 0
20 189 0
20 203 0
20 217 0
20 218 0
20 219 0
20 220 0
20 221 0
20 222 0
20 223 0
20 224 0
20 225 0
20 226 0
20 227 0
20 228 0
20 229 0
20 382 0
21 190 0
21 204 0
21 217 0
21 230 0
21 231 0
21 232 0
21 233 0
21 234 0
21 235 0
21 236 0
21 237 0
21 238 0
21 239 0
21 240 0
21 241 0
21 383 0
22 191 0
22 205 0
22 218 0
22 230 0
22 242 0
22 243 0
22 244 0
22 245 0
22 246 0
22 247 0
22 248 0
22 249 0
22 250 0
22 251 0
22 252 0
22 384 0
23 192 0
23 206 0
23 219 0
23 231 0
23 242 0
23 253 0
23 254 0
23 255 0
23 256 0
23 257 0
23 258 0
23 259 0
23 260 0
23 261 0
23 262 0
23 385 0
24 193 0
24 207 0
24 220 0
24 232 0
24 243 0
24 253 0
24 263 0
24 264 0
24 265 0
24 266 0
24 267 0
24 268 0
24 269 0
24 270 0
24 271 0
24 386 0
25 194 0
25 208 0
25 221 0
25 233 0
25 244 0
25 254 0
25 263 0
25 272 0
25 273 0
25 274 0
25 275 0
25 276 0
25 277 0
25 278 0
25 279 0
25 387 0
26 195 0
26 209 0
26 222 0
26 234 0
26 245 0
26 255 0
26 264 0
26 272 0
26 280 0
26 281 0
26 282 0
26 283 0
26 284 0
26 285 0
26 286 0
26 388 0
27 196 0
27 210 0
27 223 0
27 235 0
27 246 0
27 256 0
27 265 0
27 273 0
27 280 0
27 287 0
27 288 0
27 289 0
27 290 0
27 291 0
27 292 0
27 389 0
28 197 0
28 211 0
28 224 0
28 236 0
28 247 0
28 257 0
28 266 0
28 274 0
28 281 0
28 287 0
28 293 0
28 294 0
28 295 0
28 296 0
28 297 0
28 390 0
29 198 0
29 212 0
29 225 0
29 237 0
29 248 0
29 258 0
29 267 0
29 275 0
29 282 0
29 288 0
29 293 0
29 298 0
29 299 0
29 300 0
29 301 0
29 391 0
30 199 0
30 213 0
30 226 0
30 238 0
30 249 0
30 259 0
30 268 0
30 276 0
30 283 0
30 289 0
30 294 0
30 298 0
30 302 0
30 303 0
30 304 0
30 392 0
31 200 0
31 214 0
31 227 0
31 239 0
31 250 0
31 260 0
31 269 0
31 277 0
31 284 0
31 290 0
31 295 0
31 299 0
31 302 0
31 305 0
31 306 0
31 393 0
32 201 0
32 215 0
32 228 0
32 240 0
32 251 0
32 261 0
32 270 0
32 278 0
32 285 0
32 291 0
32 296 0
32 300 0
32 303 0
32 305 0
32 307 0
32 394 0
33 202 0
33 216 0
33 229 0
33 241 0
33 252 0
33 262 0
33 271 0
33 279 0
33 286 0
33 292 0
33 297 0
33 301 0
33 304 0
33 306 0
33 307 0
33 395 0
34 85 0
34 308 0
34 309 0
35 310 0
35 311 0
35 312 0
36 84 0
36 313 0
36 314 0
37 315 0
37 316 0
37 317 0
38 318 0
38 319 0
38 320 0
39 321 0
39 322 0
39 323 0
40 324 0
40 325 0
40 326 0
41 327 0
41 328 0
41 329 0
42 330 0
42 331 0
42 332 0
43 333 0
43 334 0
43 335 0
44 336 0
44 337 0
44 338 0
45 83 0
45 339 0
45 340 0
51 341 0
52 82 0
53 342 0
54 343 0
55 344 0
56 345 0
57 346 0
58 347 0
59 348 0
60 349 0
61 350 0
62 351 0
63 352 0
64 353 0
65 354 0
66 355 0
68 94 0
69 167 0
69 173 0
69 178 0
69 182 0
69 185 0
69 396 0
69 399 0
69 409 0
70 88 0
70 93 0
70 95 0
71 310 0
71 313 0
71 315 0
71 318 0
71 321 0
71 324 0
71 327 0
71 330 0
71 333 0
71 336 0
71 339 0
71 357 0
71 360 0
71 366 0
71 400 0
72 308 0
72 311 0
72 316 0
72 319 0
72 322 0
72 325 0
72 328 0
72 331 0
72 334 0
72 337 0
72 340 0
72 358 0
72 363 0
72 369 0
72 401 0
73 309 0
73 312 0
73 314 0
73 317 0
73 320 0
73 323 0
73 326 0
73 329 0
73 332 0
73 335 0
73 338 0
73 359 0
73 361 0
73 379 0
73 402 0
74 88 0
74 89 0
74 93 0
75 397 0
75 403 0
75 410 0
76 168 0
76 174 0
76 179 0
76 183 0
76 186 0
76 398 0
77 356 0
78 341 0
78 342 0
78 343 0
78 344 0
78 345 0
78 346 0
78 347 0
78 348 0
78 349 0
78 350 0
78 351 0
78 352 0
78 353 0
78 354 0
78 355 0
78 362 0
78 364 0
78 381 0
78 411 0
78 418 0
79 82 0
79 90 0
80 169 0
80 175 0
80 180 0
80 184 0
80 187 0
80 412 0
46 -81 0
47 -81 0
48 -81 0
49 -81 0
50 -81 0
68 -81 0
77 -81 0
-51 82 0
-53 82 0
-54 82 0
-55 82 0
-56 82 0
-57 82 0
-58 82 0
-59 82 0
-60 82 0
-61 82 0
-62 82 0
-63 82 0
-64 82 0
-65 82 0
-66 82 0
-78 82 0
-81 82 0
-34 83 0
-35 83 0
-36 83 0
-37 83 0
-38 83 0
-39 83 0
-40 83 0
-41 83 0
-42 83 0
-43 83 0
-44 83 0
-73 83 0
-81 83 0
-34 84 0
-35 84 0
-37 84 0
-38 84 0
-39 84 0
-40 84 0
-41 84 0
-42 84 0
-43 84 0
-44 84 0
-45 84 0
-72 84 0
-81 84 0
-35 85 0
-36 85 0
-37 85 0
-38 85 0
-39 85 0
-40 85 0
-41 85 0
-42 85 0
-43 85 0
-44 85 0
-45 85 0
-71 85 0
-81 85 0
-18 86 0
-19 86 0
-20 86 0
-21 86 0
-22 86 0
-23 86 0
-24 86 0
-25 86 0
-26 86 0
-27 86 0
-28 86 0
-29 86 0
-30 86 0
-31 86 0
-32 86 0
-33 86 0
-81 86 0
-1 87 0
-2 87 0
-3 87 0
-4 87 0
-5 87 0
-6 87 0
-7 87 0
-8 87 0
-9 87 0
-10 87 0
-11 87 0
-12 87 0
-81 87 0
-13 88 0
-14 88 0
-15 88 0
-16 88 0
-17 88 0
-69 88 0
-81 88 0
-13 89 0
-14 89 0
-15 89 0
-16 89 0
-17 89 0
-81 89 0
-13 90 0
-14 90 0
-15 90 0
-16 90 0
-17 90 0
-81 90 0
-13 91 0
-14 91 0
-15 91 0
-16 91 0
-17 91 0
-76 91 0
-81 91 0
-13 92 0
-14 92 0
-15 92 0
-16 92 0
-17 92 0
-80 92 0
-81 92 0
-75 93 0
-81 93 0
-69 94 0
-75 94 0
-76 94 0
-81 94 0
-71 95 0
-72 95 0
-73 95 0
-81 95 0
-13 96 0
-14 96 0
-15 96 0
-16 96 0
-17 96 0
-81 96 0
-81 97 0
-81 98 0
-81 99 0
-81 100 0
-81 101 0
-81 102 0
-81 103 0
-81 104 0
-81 105 0
-81 106 0
-81 107 0
-81 108 0
-81 109 0
-81 110 0
-81 111 0
-81 112 0
-81 113 0
-81 114 0
-81 115 0
-81 116 0
-81 117 0
-81 118 0
-81 119 0
-81 120 0
-81 121 0
-81 122 0
-81 123 0
-81 124 0
-81 125 0
-81 126 0
-81 127 0
-81 128 0
-81 129 0
-81 130 0
-81 131 0
-81 132 0
-81 133 0
-81 134 0
-81 135 0
-81 136 0
-81 137 0
-81 138 0
-81 139 0
-81 140 0
-81 141 0
-81 142 0
-81 143 0
-81 144 0
-81 145 0
-81 146 0
-81 147 0
-81 148 0
-81 149 0
-81 150 0
-81 151 0
-81 152 0
-81 153 0
-81 154 0
-81 155 0
-81 156 0
-81 157 0
-81 158 0
-81 159 0
-81 160 0
-81 161 0
-81 162 0
-81 163 0
-81 164 0
-81 165 0
-81 166 0
-81 167 0
-81 168 0
-81 169 0
-81 170 0
-81 171 0
-81 172 0
-81 173 0
-81 174 0
-81 175 0
-81 176 0
-81 177 0
-81 178 0
-81 179 0
-81 180 0
-81 181 0
-81 182 0
-81 183 0
-81 184 0
-81 185 0
-81 186 0
-81 187 0
-81 188 0
-81 189 0
-81 190 0
-81 191 0
-81 192 0
-81 193 0
-81 194 0
-81 195 0
-81 196 0
-81 197 0
-81 198 0
-81 199 0
-81 200 0
-81 201 0
-81 202 0
-81 203 0
-81 204 0
-81 205 0
-81 206 0
-81 207 0
-81 208 0
-81 209 0
-81 210 0
-81 211 0
-81 212 0
-81 213 0
-81 214 0
-81 215 0
-81 216 0
-81 217 0
-81 218 0
-81 219 0
-81 220 0
-81 221 0
-81 222 0
-81 223 0
-81 224 0
-81 225 0
-81 226 0
-81 227 0
-81 228 0
-81 229 0
-81 230 0
-81 231 0
-81 232 0
-81 233 0
-81 234 0
-81 235 0
-81 236 0
-81 237 0
-81 238 0
-81 239 0
-81 240 0
-81 241 0
-81 242 0
-81 243 0
-81 244 0
-81 245 0
-81 246 0
-81 247 0
-81 248 0
-81 249 0
-81 250 0
-81 251 0
-81 252 0
-81 253 0
-81 254 0
-81 255 0
-81 256 0
-81 257 0
-81 258 0
-81 259 0
-81 260 0
-81 261 0
-81 262 0
-81 263 0
-81 264 0
-81 265 0
-81 266 0
-81 267 0
-81 268 0
-81 269 0
-81 270 0
-81 271 0
-81 272 0
-81 273 0
-81 274 0
-81 275 0
-81 276 0
-81 277 0
-81 278 0
-81 279 0
-81 280 0
-81 281 0
-81 282 0
-81 283 0
-81 284 0
-81 285 0
-81 286 0
-81 287 0
-81 288 0
-81 289 0
-81 290 0
-81 291 0
-81 292 0
-81 293 0
-81 294 0
-81 295 0
-81 296 0
-81 297 0
-81 298 0
-81 299 0
-81 300 0
-81 301 0
-81 302 0
-81 303 0
-81 304 0
-81 305 0
-81 306 0
-81 307 0
-81 308 0
-81 309 0
-81 310 0
-81 311 0
-81 312 0
-81 313 0
-81 314 0
-81 315 0
-81 316 0
-81 317 0
-81 318 0
-81 319 0
-81 320 0
-81 321 0
-81 322 0
-81 323 0
-81 324 0
-81 325 0
-81 326 0
-81 327 0
-81 328 0
-81 329 0
-81 330 0
-81 331 0
-81 332 0
-81 333 0
-81 334 0
-81 335 0
-81 336 0
-81 337 0
-81 338 0
-81 339 0
-81 340 0
-81 341 0
-81 342 0
-81 343 0
-81 344 0
-81 345 0
-81 346 0
-81 347 0
-81 348 0
-81 349 0
-81 350 0
-81 351 0
-81 352 0
-81 353 0
-81 354 0
-81 355 0
-78 356 0
-80 356 0
-81 356 0
-1 357 0
-81 357 0
-3 358 0
-81 358 0
-12 359 0
-81 359 0
-13 360 0
-81 360 0
-14 361 0
-81 361 0
-14 362 0
-81 362 0
-15 363 0
-81 363 0
-19 364 0
-81 364 0
-34 365 0
-81 365 0
-34 366 0
-81 366 0
-35 367 0
-81 367 0
-36 368 0
-81 368 0
-36 369 0
-81 369 0
-37 370 0
-81 370 0
-38 371 0
-81 371 0
-39 372 0
-81 372 0
-40 373 0
-81 373 0
-41 374 0
-81 374 0
-42 375 0
-81 375 0
-43 376 0
-81 376 0
-44 377 0
-81 377 0
-45 378 0
-81 378 0
-45 379 0
-81 379 0
-51 380 0
-81 380 0
-52 381 0
-81 381 0
-53 382 0
-81 382 0
-54 383 0
-81 383 0
-55 384 0
-81 384 0
-56 385 0
-81 385 0
-57 386 0
-81 386 0
-58 387 0
-81 387 0
-59 388 0
-81 388 0
-60 389 0
-81 389 0
-61 390 0
-81 390 0
-62 391 0
-81 391 0
-63 392 0
-81 392 0
-64 393 0
-81 393 0
-65 394 0
-81 394 0
-66 395 0
-81 395 0
-68 396 0
-81 396 0
-68 397 0
-81 397 0
-68 398 0
-81 398 0
-70 399 0
-81 399 0
-70 400 0
-81 400 0
-70 401 0
-81 401 0
-70 402 0
-81 402 0
-70 403 0
-81 403 0
-74 404 0
-81 404 0
-74 405 0
-81 405 0
-74 406 0
-81 406 0
-74 407 0
-81 407 0
-74 408 0
-81 408 0
-74 409 0
-81 409 0
-74 410 0
-81 410 0
-77 411 0
-81 411 0
-77 412 0
-81 412 0
-79 413 0
-81 413 0
-79 414 0
-81 414 0
-79 415 0
-81 415 0
-79 416 0
-81 416 0
-79 417 0
-81 417 0
-79 418 0
-81 418 0
1 -71 -357 0
3 -72 -358 0
12 -73 -359 0
13 -71 -360 0
14 -73 -361 0
14 -78 -362 0
15 -72 -363 0
19 -78 -364 0
-1 34 -365 0
34 -71 -366 0
-2 35 -367 0
-3 36 -368 0
36 -72 -369 0
-4 37 -370 0
-5 38 -371 0
-6 39 -372 0
-7 40 -373 0
-8 41 -374 0
-9 42 -375 0
-10 43 -376 0
-11 44 -377 0
-12 45 -378 0
45 -73 -379 0
-18 51 -380 0
52 -78 -381 0
-20 53 -382 0
-21 54 -383 0
-22 55 -384 0
-23 56 -385 0
-24 57 -386 0
-25 58 -387 0
-26 59 -388 0
-27 60 -389 0
-28 61 -390 0
-29 62 -391 0
-30 63 -392 0
-31 64 -393 0
-32 65 -394 0
-33 66 -395 0
68 -69 -396 0
68 -75 -397 0
68 -76 -398 0
-69 70 -399 0
70 -71 -400 0
70 -72 -401 0
70 -73 -402 0
70 -75 -403 0
-13 74 -404 0
-14 74 -405 0
-15 74 -406 0
-16 74 -407 0
-17 74 -408 0
-69 74 -409 0
74 -75 -410 0
77 -78 -411 0
77 -80 -412 0
-13 79 -413 0
-14 79 -414 0
-15 79 -415 0
-16 79 -416 0
-17 79 -417 0
-78 79 -418 0
-1 -2 -97 0
-1 -3 -98 0
-1 -4 -99 0
-1 -5 -100 0
-1 -6 -101 0
-1 -7 -102 0
-1 -8 -103 0
-1 -9 -104 0
-1 -10 -105 0
-1 -11 -106 0
-1 -12 -107 0
-2 -3 -108 0
-2 -4 -109 0
-2 -5 -110 0
-2 -6 -111 0
-2 -7 -112 0
-2 -8 -113 0
-2 -9 -114 0
-2 -10 -115 0
-2 -11 -116 0
-2 -12 -117 0
-3 -4 -118 0
-3 -5 -119 0
-3 -6 -120 0
-3 -7 -121 0
-3 -8 -122 0
-3 -9 -123 0
-3 -10 -124 0
-3 -11 -125 0
-3 -12 -126 0
-4 -5 -127 0
-4 -6 -128 0
-4 -7 -129 0
-4 -8 -130 0
-4 -9 -131 0
-4 -10 -132 0
-4 -11 -133 0
-4 -12 -134 0
-5 -6 -135 0
-5 -7 -136 0
-5 -8 -137 0
-5 -9 -138 0
-5 -10 -139 0
-5 -11 -140 0
-5 -12 -141 0
-6 -7 -142 0
-6 -8 -143 0
-6 -9 -144 0
-6 -10 -145 0
-6 -11 -146 0
-6 -12 -147 0
-7 -8 -148 0
-7 -9 -149 0
-7 -10 -150 0
-7 -11 -151 0
-7 -12 -152 0
-8 -9 -153 0
-8 -10 -154 0
-8 -11 -155 0
-8 -12 -156 0
-9 -10 -157 0
-9 -11 -158 0
-9 -12 -159 0
-10 -11 -160 0
-10 -12 -161 0
-11 -12 -162 0
-13 -14 -163 0
-13 -15 -164 0
-13 -16 -165 0
-13 -17 -166 0
-13 -69 -167 0
-13 -76 -168 0
-13 -80 -169 0
-14 -15 -170 0
-14 -16 -171 0
-14 -17 -172 0
-14 -69 -173 0
-14 -76 -174 0
-14 -80 -175 0
-15 -16 -176 0
-15 -17 -177 0
-15 -69 -178 0
-15 -76 -179 0
-15 -80 -180 0
-16 -17 -181 0
-16 -69 -182 0
-16 -76 -183 0
-16 -80 -184 0
-17 -69 -185 0
-17 -76 -186 0
-17 -80 -187 0
-18 -19 -188 0
-18 -20 -189 0
-18 -21 -190 0
-18 -22 -191 0
-18 -23 -192 0
-18 -24 -193 0
-18 -25 -194 0
-18 -26 -195 0
-18 -27 -196 0
-18 -28 -197 0
-18 -29 -198 0
-18 -30 -199 0
-18 -31 -200 0
-18 -32 -201 0
-18 -33 -202 0
-19 -20 -203 0
-19 -21 -204 0
-19 -22 -205 0
-19 -23 -206 0
-19 -24 -207 0
-19 -25 -208 0
-19 -26 -209 0
-19 -27 -210 0
-19 -28 -211 0
-19 -29 -212 0
-19 -30 -213 0
-19 -31 -214 0
-19 -32 -215 0
-19 -33 -216 0
-20 -21 -217 0
-20 -22 -218 0
-20 -23 -219 0
-20 -24 -220 0
-20 -25 -221 0
-20 -26 -222 0
-20 -27 -223 0
-20 -28 -224 0
-20 -29 -225 0
-20 -30 -226 0
-20 -31 -227 0
-20 -32 -228 0
-20 -33 -229 0
-21 -22 -230 0
-21 -23 -231 0
-21 -24 -232 0
-21 -25 -233 0
-21 -26 -234 0
-21 -27 -235 0
-21 -28 -236 0
-21 -29 -237 0
-21 -30 -238 0
-21 -31 -239 0
-21 -32 -240 0
-21 -33 -241 0
-22 -23 -242 0
-22 -24 -243 0
-22 -25 -244 0
-22 -26 -245 0
-22 -27 -246 0
-22 -28 -247 0
-22 -29 -248 0
-22 -30 -249 0
-22 -31 -250 0
-22 -32 -251 0
-22 -33 -252 0
-23 -24 -253 0
-23 -25 -254 0
-23 -26 -255 0
-23 -27 -256 0
-23 -28 -257 0
-23 -29 -258 0
-23 -30 -259 0
-23 -31 -260 0
-23 -32 -261 0
-23 -33 -262 0
-24 -25 -263 0
-24 -26 -264 0
-24 -27 -265 0
-24 -28 -266 0
-24 -29 -267 0
-24 -30 -268 0
-24 -31 -269 0
-24 -32 -270 0
-24 -33 -271 0
-25 -26 -272 0
-25 -27 -273 0
-25 -28 -274 0
-25 -29 -275 0
-25 -30 -276 0
-25 -31 -277 0
-25 -32 -278 0
-25 -33 -279 0
-26 -27 -280 0
-26 -28 -281 0
-26 -29 -282 0
-26 -30 -283 0
-26 -31 -284 0
-26 -32 -285 0
-26 -33 -286 0
-27 -28 -287 0
-27 -29 -288 0
-27 -30 -289 0
-27 -31 -290 0
-27 -32 -291 0
-27 -33 -292 0
-28 -29 -293 0
-28 -30 -294 0
-28 -31 -295 0
-28 -32 -296 0
-28 -33 -297 0
-29 -30 -298 0
-29 -31 -299 0
-29 -32 -300 0
-29 -33 -301 0
-30 -31 -302 0
-30 -32 -303 0
-30 -33 -304 0
-31 -32 -305 0
-31 -33 -306 0
-32 -33 -307 0
-34 -72 -308 0
-34 -73 -309 0
-35 -71 -310 0
-35 -72 -311 0
-35 -73 -312 0
-36 -71 -313 0
-36 -73 -314 0
-37 -71 -315 0
-37 -72 -316 0
-37 -73 -317 0
-38 -71 -318 0
-38 -72 -319 0
-38 -73 -320 0
-39 -71 -321 0
-39 -72 -322 0
-39 -73 -323 0
-40 -71 -324 0
-40 -72 -325 0
-40 -73 -326 0
-41 -71 -327 0
-41 -72 -328 0
-41 -73 -329 0
-42 -71 -330 0
-42 -72 -331 0
-42 -73 -332 0
-43 -71 -333 0
-43 -72 -334 0
-43 -73 -335 0
-44 -71 -336 0
-44 -72 -337 0
-44 -73 -338 0
-45 -71 -339 0
-45 -72 -340 0
-51 -78 -341 0
-53 -78 -342 0
-54 -78 -343 0
-55 -78 -344 0
-56 -78 -345 0
-57 -78 -346 0
-58 -78 -347 0
-59 -78 -348 0
-60 -78 -349 0
-61 -78 -350 0
-62 -78 -351 0
-63 -78 -352 0
-64 -78 -353 0
-65 -78 -354 0
-66 -78 -355 0
-77 78 80 -356 0
-70 -74 75 -93 0
-68 69 75 76 -94 0
-70 71 72 73 -95 0
13 14 15 16 17 -96 0
13 14 15 16 17 76 -91 0
13 14 15 16 17 80 -92 0
13 14 15 16 17 -74 -89 0
13 14 15 16 17 -79 -90 0
13 14 15 16 17 69 -70 -74 -88 0
1 2 3 4 5 6 7 8 9 10 11 12 -87 0
18 19 20 21 22 23 24 25 26 27 28 29 30 31 32 33 -86 0
-12 -14 34 35 36 37 38 39 40 41 42 43 44 -45 73 -83 0
-3 -15 34 35 -36 37 38 39 40 41 42 43 44 45 72 -84 0
-1 -13 -34 35 36 37 38 39 40 41 42 43 44 45 71 -85 0
-14 -19 51 -52 53 54 55 56 57 58 59 60 61 62 63 64 65 66 78 -79 -82 0
-46 -47 -48 -49 -50 -68 -77 81 -82 -83 -84 -85 -86 -87 -88 -89 -90 -91 -92 -93 -94 -95 -96 -97 -98 -99 -100 -101 -102 -103 -104 -105 -106 -107 -108 -109 -110 -111 -112 -113 -114 -115 -116 -117 -118 -119 -120 -121 -122 -123 -124 -125 -126 -127 -128 -129 -130 -131 -132 -133 -134 -135 -136 -137 -138 -139 -140 -141 -142 -143 -144 -145 -146 -147 -148 -149 -150 -151 -152 -153 -154 -155 -156 -157 -158 -159 -160 -161 -162 -163 -164 -165 -166 -167 -168 -169 -170 -171 -172 -173 -174 -175 -176 -177 -178 -179 -180 -181 -182 -183 -184 -185 -186 -187 -188 -189 -190 -191 -192 -193 -194 -195 -196 -197 -198 -199 -200 -201 -202 -203 -204 -205 -206 -207 -208 -209 -210 -211 -212 -213 -214 -215 -216 -217 -218 -219 -220 -221 -222 -223 -224 -225 -226 -227 -228 -229 -230 -231 -232 -233 -234 -235 -236 -237 -238 -239 -240 -241 -242 -243 -244 -245 -246 -247 -248 -249 -250 -251 -252 -253 -254 -255 -256 -257 -258 -259 -260 -261 -262 -263 -264 -265 -266 -267 -268 -269 -270 -271 -272 -273 -274 -275 -276 -277 -278 -279 -280 -281 -282 -283 -284 -285 -286 -287 -288 -289 -290 -291 -292 -293 -294 -295 -296 -297 -298 -299 -300 -301 -302 -303 -304 -305 -306 -307 -308 -309 -310 -311 -312 -313 -314 -315 -316 -317 -318 -319 -320 -321 -322 -323 -324 -325 -326 -327 -328 -329 -330 -331 -332 -333 -334 -335 -336 -337 -338 -339 -340 -341 -342 -343 -344 -345 -346 -347 -348 -349 -350 -351 -352 -353 -354 -355 -356 -357 -358 -359 -360 -361 -362 -363 -364 -365 -366 -367 -368 -369 -370 -371 -372 -373 -374 -375 -376 -377 -378 -379 -380 -381 -382 -383 -384 -385 -386 -387 -388 -389 -390 -391 -392 -393 -394 -395 -396 -397 -398 -399 -400 -401 -402 -403 -404 -405 -406 -407 -408 -409 -410 -411 -412 -413 -414 -415 -416 -417 -418 0
